NAME : amz2984.1616143_113143.tour
COMMENT : Cost = 1616143_113143
COMMENT : Found by LKH-AMZ [Keld Helsgaun] Sun May 11 14:19:48 2025
COMMENT : TW viol.: 0 #: 0
TYPE : TOUR
DIMENSION : 120
TOUR_SECTION
63
71
10
55
97
109
28
6
18
93
4
3
29
56
89
11
50
107
20
12
37
99
27
59
60
111
88
41
16
70
116
120
54
83
112
64
96
80
1
75
77
100
118
86
87
85
36
43
22
98
39
65
24
40
53
25
51
69
115
31
17
114
45
62
21
74
47
92
95
30
119
90
104
103
79
19
8
108
102
33
58
13
101
61
67
34
66
82
38
84
68
94
23
14
48
110
57
106
44
91
5
35
32
26
117
42
15
2
7
78
52
113
76
46
73
49
81
9
72
105
-1
EOF
